
Gurobi 10.0.3 (linux64, gurobi_cl) logging started Mon Oct 30 21:43:45 2023

Set parameter LogFile to value "gurobi.log"

Gurobi 10.0.3 (linux64, gurobi_cl) logging started Mon Oct 30 21:43:58 2023

Set parameter LogFile to value "gurobi.log"

Gurobi 10.0.3 (linux64, gurobi_cl) logging started Mon Oct 30 21:44:32 2023

Set parameter LogFile to value "gurobi.log"

Gurobi 10.0.3 (linux64, gurobi_cl) logging started Mon Oct 30 22:10:14 2023

Set parameter LogFile to value "gurobi.log"
